(set-logic HORN)
(set-info :source |
    Benchmark: C_VC
    Output by Princess (http://www.philipp.ruemmer.org/princess.shtml)
|)
(set-info :status unknown)
(declare-fun inv_main10 (Int Int Int) Bool)
(declare-fun inv_main4 (Int Int) Bool)
(declare-fun inv_main9 (Int Int Int) Bool)
(assert (inv_main4 0 0 ) )
(assert (forall ((var0 Int)) (forall ((var1 Int)) (forall ((var2 Int)) (or (not (and (inv_main10 var1 var2 var0 ) (not (<= 0 (+ (+ (* 2 var0 ) (* (- 1) var1 ) ) (- 1) ) ) ) ) ) (inv_main9 var1 var2 var0 ) ) ) ) ) )
(assert (forall ((var0 Int)) (forall ((var1 Int)) (forall ((var2 Int)) (or (not (and (inv_main10 var1 var2 var0 ) (and (forall ((var3 Int)) (or (not (and (and (and (and (<= 0 (+ (+ 2 (* (- 1) var3 ) ) (- 1) ) ) (<= 0 (+ (+ 2 (* 1 var3 ) ) (- 1) ) ) ) (or (not (<= 0 (+ var3 (- 1) ) ) ) (<= 0 (+ var1 (- 1) ) ) ) ) (or (not (<= 0 (+ (* (- 1) var3 ) (- 1) ) ) ) (<= 0 (+ (* (- 1) var1 ) (- 1) ) ) ) ) (exists ((var4 Int)) (= var1 (+ (* 2 var4 ) var3 ) ) ) ) ) (= var3 0 ) ) ) (<= 0 (+ (+ (* 2 var0 ) (* (- 1) var1 ) ) (- 1) ) ) ) ) ) (inv_main10 (+ var1 1 ) (+ var2 1 ) var0 ) ) ) ) ) )
(assert (forall ((var0 Int)) (forall ((var1 Int)) (forall ((var2 Int)) (or (not (and (inv_main10 var1 var2 var0 ) (and (not (exists ((var3 Int)) (and (and (and (and (and (<= 0 (+ (+ 2 (* (- 1) var3 ) ) (- 1) ) ) (<= 0 (+ (+ 2 (* 1 var3 ) ) (- 1) ) ) ) (or (not (<= 0 (+ var3 (- 1) ) ) ) (<= 0 (+ var1 (- 1) ) ) ) ) (or (not (<= 0 (+ (* (- 1) var3 ) (- 1) ) ) ) (<= 0 (+ (* (- 1) var1 ) (- 1) ) ) ) ) (exists ((var4 Int)) (= var1 (+ (* 2 var4 ) var3 ) ) ) ) (= var3 0 ) ) ) ) (<= 0 (+ (+ (* 2 var0 ) (* (- 1) var1 ) ) (- 1) ) ) ) ) ) (inv_main10 (+ var1 1 ) var2 var0 ) ) ) ) ) )
(assert (forall ((var0 Int)) (forall ((var1 Int)) (forall ((var2 Int)) (or (not (and (inv_main4 var1 var2 ) (and (<= 0 (+ 1000000 (* (- 1) var0 ) ) ) (<= 0 (+ var0 1000000 ) ) ) ) ) (inv_main10 0 var2 var0 ) ) ) ) ) )
(assert (forall ((var0 Int)) (forall ((var1 Int)) (forall ((var2 Int)) (not (and (inv_main9 var1 var2 var0 ) (and (not (<= 0 (+ (* (- 1) var0 ) (- 1) ) ) ) (not (= var2 var0 ) ) ) ) ) ) ) ) )
(check-sat)
